0.0 61.8 117.56 161.8 190.21 200.0 190.21 161.8 117.56 61.8
61.8 0.0 61.8 117.56 161.8 190.21 200.0 190.21 161.8 117.56
117.56 61.8 0.0 61.8 117.56 161.8 190.21 200.0 190.21 161.8
161.8 117.56 61.8 0.0 61.8 117.56 161.8 190.21 200.0 190.21
190.21 161.8 117.56 61.8 0.0 61.8 117.56 161.8 190.21 200.0
200.0 190.21 161.8 117.56 61.8 0.0 61.8 117.56 161.8 190.21
190.21 200.0 190.21 161.8 117.56 61.8 0.0 61.8 117.56 161.8
161.8 190.21 200.0 190.21 161.8 117.56 61.8 0.0 61.8 117.56
117.56 161.8 190.21 200.0 190.21 161.8 117.56 61.8 0.0 61.8
61.8 117.56 161.8 190.21 200.0 190.21 161.8 117.56 61.8 0.0
